NAME: kroA100
DIMENSION: 19
EDGE_WEIGHT_TYPE: EUC_2D
NODE_COORD_SECTION
1 1380 939
2 2848 96
3 3510 1671
4 457 334
5 3888 666
6 984 965
7 2721 1482
8 1286 525
9 2716 1432
10 738 1325
11 1251 1832
12 2728 1698
13 3815 169
14 3683 1533
15 1247 1945
16 123 862
17 1234 1946
18 252 1240
19 611 673
ACCEPTED_PROBABILITIES
0.0
0.14
0.24
0.62
0.18
0.21
0.64
0.18
0.29
0.77
0.3
0.52
0.01
0.49
0.84
0.44
0.51
0.77
0.86
OUTSOURCING_COSTS
0.0
6.06
104.41
113.7
129.11
74.99
117.11
19.1
34.86
93.85
10.24
113.48
58.59
39.55
66.98
102.88
104.38
22.99
91.24
